facility.sol
# Solution for model facility
# Objective value = 210500
Open0 1
Open1 1
Open2 0
Open3 1
Open4 1
Trans0.0 0
Trans1.0 14
Trans2.0 0
Trans3.0 1
Trans4.0 0
Trans0.1 0
Trans1.1 0
Trans2.1 0
Trans3.1 18
Trans4.1 0
Trans0.2 14
Trans1.2 0
Trans2.2 0
Trans3.2 0
Trans4.2 0
Trans0.3 6
Trans1.3 8
Trans2.3 0
Trans3.3 0
Trans4.3 6
